71
100
80	11
79	9
78	16
77	10
76	21
75	20
74	19
73	16
72	11
71	11
70	17
69	18
68	12
67	6
66	17
65	16
64	14
63	11
62	12
61	21
60	12
59	26
58	12
57	12
56	7
55	16
54	12
53	15
52	15
51	17
50	9
49	14
48	14
47	11
46	11
45	17
44	10
43	11
42	15
41	14
40	22
39	9
38	18
37	13
36	12
35	10
34	12
33	13
32	19
31	11
30	22
29	16
28	16
27	22
26	14
25	14
24	17
23	11
22	14
21	12
20	10
19	16
18	18
17	14
16	16
15	9
14	11
13	15
12	15
11	11
10	10
